CPXPARAM_Read_DataCheck                          1
Found incumbent of value 0.000000 after 0.00 sec. (1.31 ticks)
Tried aggregator 1 time.
MIP Presolve modified 1 coefficients.
Reduced MIP has 10017 rows, 50005 columns, and 250017 nonzeros.
Reduced MIP has 50005 binaries, 0 generals, 0 SOSs, and 0 indicators.
Presolve time = 0.11 sec. (146.20 ticks)
Probing time = 0.11 sec. (34.18 ticks)
Tried aggregator 1 time.
Reduced MIP has 10017 rows, 50005 columns, and 250017 nonzeros.
Reduced MIP has 50005 binaries, 0 generals, 0 SOSs, and 0 indicators.
Presolve time = 0.17 sec. (167.14 ticks)
Probing time = 0.08 sec. (32.26 ticks)
Clique table members: 160064.
MIP emphasis: balance optimality and feasibility.
MIP search method: dynamic search.
Parallel mode: deterministic, using up to 4 threads.
Root relaxation solution time = 0.69 sec. (837.78 ticks)

        Nodes                                         Cuts/
   Node  Left     Objective  IInf  Best Integer    Best Bound    ItCnt     Gap

*     0+    0                            0.0000   310174.0000              --- 
*     0+    0                        17576.0000   310174.0000              --- 
      0     0   101981.3577     5    17576.0000   101981.3577       14  480.23%
*     0+    0                        52698.0000   101981.3577            93.52%
      0     0   101977.7115     5    52698.0000 Cliques: 2604       16   55.55%
*     0+    0                        55594.0000    81969.7028            47.44%
      0     0        cutoff          55594.0000    55594.0000     4940    0.00%
Elapsed time = 37.28 sec. (21307.38 ticks, tree = 0.01 MB, solutions = 4)

Clique cuts applied:  5202
Cover cuts applied:  1
Implied bound cuts applied:  2
Gomory fractional cuts applied:  3

Root node processing (before b&c):
  Real time             =   37.28 sec. (21311.39 ticks)
Parallel b&c, 4 threads:
  Real time             =    0.00 sec. (0.00 ticks)
  Sync time (average)   =    0.00 sec.
  Wait time (average)   =    0.00 sec.
                          ------------
Total (root+branch&cut) =   37.28 sec. (21311.39 ticks)
